p cnf 9 50
-1 -7 9 0
-6 -3 -5 0
6 8 4 0
8 -7 4 0
-2 8 -6 0
-6 5 -9 0
-1 -8 -5 0
-3 7 8 0
-7 8 -6 0
-5 7 8 0
8 6 -9 0
3 5 -9 0
9 -8 -7 0
4 -5 9 0
4 -1 -3 0
4 5 -2 0
-7 -8 -9 0
-9 3 -5 0
3 -5 2 0
-2 5 -8 0
-1 8 2 0
5 -9 -8 0
-9 4 -2 0
-3 -4 -9 0
8 -6 1 0
9 -7 3 0
8 -5 9 0
7 8 6 0
-3 9 -1 0
-9 2 -1 0
6 8 -1 0
9 6 8 0
3 -8 -9 0
9 -5 -1 0
-7 6 3 0
-3 -6 9 0
3 -4 9 0
-7 3 -8 0
-7 3 -1 0
1 5 -9 0
-7 -9 2 0
2 3 -7 0
4 -8 2 0
-4 6 9 0
-5 -7 6 0
-1 -3 8 0
-9 -8 6 0
-4 -9 8 0
7 3 9 0
5 -9 -4 0
